HUN,8,6,164
1,26,0,16,2,29,3,2,4,10,5,4
1,16,0,11,2,22,4,12,3,15,5,20
1,4,2,10,0,19,3,28,4,11,5,1
0,11,2,8,1,23,5,7,3,13,4,10
0,26,2,2,1,2,3,13,5,28,4,24
0,23,1,27,2,15,5,11,3,25,4,2
0,22,2,16,1,8,3,17,5,17,4,20
0,12,2,13,1,28,4,23,5,15,3,14
